instances/knapsack/discrete_knapsack_uncertainty/knapsack_130_2.lp
\ Model knapsack_130_2
\ LP format - for model browsing. Use MPS format to capture full model detail.
\ Signature: 0x8c644a484ac146d4
Minimize
  - 97 x[0] - 61 x[1] - 87 x[2] - 55 x[3] - 36 x[4] - 48 x[5] - 44 x[6]
   - 18 x[7] - 81 x[8] - 5 x[9] - 18 x[10] - 34 x[11] - 74 x[12] - 5 x[13]
   - 54 x[14] - 31 x[15] - 93 x[16] - 17 x[17] - 45 x[18] - 28 x[19]
   - 8 x[20] - 26 x[21] - 59 x[22] - 43 x[23] - 16 x[24] - 65 x[25]
   - 71 x[26] - 30 x[27] - 5 x[28] - 7 x[29] - 32 x[30] - 83 x[31]
   - 95 x[32] - 58 x[33] - 6 x[34] - 68 x[35] - 84 x[36] - 22 x[37]
   - 89 x[38] - 70 x[39] - 11 x[40] - 12 x[41] - 96 x[42] - 50 x[43]
   - 17 x[44] - 18 x[45] - 75 x[46] - 79 x[47] - 55 x[48] - 68 x[49]
   - 18 x[50] - 65 x[51] - 10 x[52] - 4 x[53] - 59 x[54] - 45 x[55]
   - 69 x[56] - 79 x[57] - 39 x[58] - 42 x[59] - 47 x[60] - 13 x[61]
   - 4 x[62] - 44 x[63] - 25 x[64] - 76 x[65] - 84 x[66] - 52 x[67]
   - 3 x[68] - 80 x[69] - 20 x[70] - 54 x[71] - 68 x[72] - 80 x[73]
   - 37 x[74] - 77 x[75] - 37 x[76] - 68 x[77] - 75 x[78] - 34 x[79]
   - 54 x[80] - 89 x[81] - 32 x[82] - 77 x[83] - 64 x[84] - 19 x[85]
   - 13 x[86] - 58 x[87] - 19 x[88] - 53 x[89] - 85 x[90] - 76 x[91]
   - 4 x[92] - 79 x[93] - 99 x[94] - 89 x[95] - 92 x[96] - 35 x[97]
   - 31 x[98] - 55 x[99] - 27 x[100] - 68 x[101] - 9 x[102] - 92 x[103]
   - 54 x[104] - 98 x[105] - 33 x[106] - 39 x[107] - 25 x[108] - 35 x[109]
   - 20 x[110] - 17 x[111] - 76 x[112] - 26 x[113] - 85 x[114] - 36 x[115]
   - 18 x[116] - 96 x[117] - 65 x[118] - 46 x[119] - 20 x[120] - 29 x[121]
   - 81 x[122] - 6 x[123] - 14 x[124] - 59 x[125] - 27 x[126] - 5 x[127]
   - 78 x[128] - 55 x[129]
Subject To
 primal_upper: 60 x[0] + 73 x[1] + 99 x[2] + 72 x[3] + 73 x[4] + 6 x[5]
   + 82 x[6] + 52 x[7] + 14 x[8] + 83 x[9] + 64 x[10] + 28 x[11] + 29 x[12]
   + 93 x[13] + 97 x[14] + 89 x[15] + 6 x[16] + 81 x[17] + 54 x[18]
   + 95 x[19] + 54 x[20] + 28 x[21] + 53 x[22] + 71 x[23] + 73 x[24]
   + 77 x[25] + 55 x[26] + 4 x[27] + 90 x[28] + 8 x[29] + 10 x[30]
   + 76 x[31] + 24 x[32] + 74 x[33] + 93 x[34] + 6 x[35] + 13 x[36]
   + 9 x[37] + 65 x[38] + 55 x[39] + 40 x[40] + 66 x[41] + 63 x[42]
   + 42 x[43] + 60 x[44] + 83 x[45] + 30 x[46] + 74 x[47] + 60 x[48]
   + 29 x[49] + 7 x[50] + 21 x[51] + 70 x[52] + 33 x[53] + 61 x[54]
   + 28 x[55] + 70 x[56] + 75 x[57] + 73 x[58] + 51 x[59] + 29 x[60]
   + 15 x[61] + 52 x[62] + 51 x[63] + 4 x[64] + 65 x[65] + 37 x[66]
   + 63 x[67] + 97 x[68] + 2 x[69] + 62 x[70] + 22 x[71] + 39 x[72]
   + 40 x[73] + 52 x[74] + 25 x[75] + 11 x[76] + 64 x[77] + 9 x[78]
   + 99 x[79] + 34 x[80] + 50 x[81] + 19 x[82] + 94 x[83] + 66 x[84]
   + 18 x[85] + 48 x[86] + 85 x[87] + 75 x[88] + 100 x[89] + 89 x[90]
   + 69 x[91] + 25 x[92] + 44 x[93] + 9 x[94] + 62 x[95] + 58 x[96]
   + 69 x[97] + 93 x[98] + 81 x[99] + 22 x[100] + 97 x[101] + 55 x[102]
   + 13 x[103] + 46 x[104] + 7 x[105] + 52 x[106] + 7 x[107] + 15 x[108]
   + 58 x[109] + 87 x[110] + 20 x[111] + 38 x[112] + 10 x[113] + 94 x[114]
   + 91 x[115] + 52 x[116] + 78 x[117] + 26 x[118] + 33 x[119] + 96 x[120]
   + 29 x[121] + 88 x[122] + 63 x[123] + 78 x[124] + 87 x[125] + 56 x[126]
   + 72 x[127] + 83 x[128] + 12 x[129] + 6 r[0] + 7.3 r[1] + 9.9 r[2]
   + 7.2 r[3] + 7.3 r[4] + 0.6 r[5] + 8.2 r[6] + 5.2 r[7] + 1.4 r[8]
   + 8.3 r[9] + 6.4 r[10] + 2.8 r[11] + 2.9 r[12] + 9.3 r[13] + 9.7 r[14]
   + 8.9 r[15] + 0.6 r[16] + 8.1 r[17] + 5.4 r[18] + 9.5 r[19] + 5.4 r[20]
   + 2.8 r[21] + 5.3 r[22] + 7.1 r[23] + 7.3 r[24] + 7.7 r[25] + 5.5 r[26]
   + 0.4 r[27] + 9 r[28] + 0.8 r[29] + r[30] + 7.6 r[31] + 2.4 r[32]
   + 7.4 r[33] + 9.3 r[34] + 0.6 r[35] + 1.3 r[36] + 0.9 r[37] + 6.5 r[38]
   + 5.5 r[39] + 4 r[40] + 6.6 r[41] + 6.3 r[42] + 4.2 r[43] + 6 r[44]
   + 8.3 r[45] + 3 r[46] + 7.4 r[47] + 6 r[48] + 2.9 r[49] + 0.7 r[50]
   + 2.1 r[51] + 7 r[52] + 3.3 r[53] + 6.1 r[54] + 2.8 r[55] + 7 r[56]
   + 7.5 r[57] + 7.3 r[58] + 5.1 r[59] + 2.9 r[60] + 1.5 r[61] + 5.2 r[62]
   + 5.1 r[63] + 0.4 r[64] + 6.5 r[65] + 3.7 r[66] + 6.3 r[67] + 9.7 r[68]
   + 0.2 r[69] + 6.2 r[70] + 2.2 r[71] + 3.9 r[72] + 4 r[73] + 5.2 r[74]
   + 2.5 r[75] + 1.1 r[76] + 6.4 r[77] + 0.9 r[78] + 9.9 r[79] + 3.4 r[80]
   + 5 r[81] + 1.9 r[82] + 9.4 r[83] + 6.6 r[84] + 1.8 r[85] + 4.8 r[86]
   + 8.5 r[87] + 7.5 r[88] + 10 r[89] + 8.9 r[90] + 6.9 r[91] + 2.5 r[92]
   + 4.4 r[93] + 0.9 r[94] + 6.2 r[95] + 5.8 r[96] + 6.9 r[97] + 9.3 r[98]
   + 8.1 r[99] + 2.2 r[100] + 9.7 r[101] + 5.5 r[102] + 1.3 r[103]
   + 4.6 r[104] + 0.7 r[105] + 5.2 r[106] + 0.7 r[107] + 1.5 r[108]
   + 5.8 r[109] + 8.7 r[110] + 2 r[111] + 3.8 r[112] + r[113] + 9.4 r[114]
   + 9.1 r[115] + 5.2 r[116] + 7.8 r[117] + 2.6 r[118] + 3.3 r[119]
   + 9.6 r[120] + 2.9 r[121] + 8.8 r[122] + 6.3 r[123] + 7.8 r[124]
   + 8.7 r[125] + 5.6 r[126] + 7.2 r[127] + 8.3 r[128] + 1.2 r[129] <= 649
 primal_lower: 0.3136383195235577 x[0] + 4.393337359926091 x[1]
   + 2.852216849058681 x[2] + 4.036394856087508 x[3]
   + 4.529188571354816 x[4] + 3.661552027671562 x[5]
   + 3.998255714104478 x[6] + 1.212750113938589 x[7]
   + 4.265182391166601 x[8] + 1.911206136378546 x[9]
   + 3.703092730492321 x[10] + 3.405109718298374 x[11]
   + 2.285832158146992 x[12] + 1.811789590217585 x[13]
   + 4.521100273414501 x[14] + 2.37359680068111 x[15]
   + 3.956453939738096 x[16] + 2.442604791696524 x[17]
   + 1.743921094061207 x[18] + 1.256077541967246 x[19]
   + 1.699828616273132 x[20] + 2.158612117075438 x[21]
   + 0.601979483533097 x[22] + 0.1770661808097136 x[23]
   + 3.944743226215148 x[24] + 4.115702175722417 x[25]
   + 1.483441021531314 x[26] + 0.1994049928076012 x[27]
   + 1.097924424121329 x[28] + 1.396708573701338 x[29]
   + 0.4761121922657402 x[30] + 1.876899214372152 x[31]
   + 0.6944011328238586 x[32] + 3.821627095318734 x[33]
   + 2.918980830422614 x[34] + 1.663565906729076 x[35]
   + 2.851137817826295 x[36] + 1.737997554210306 x[37]
   + 1.391727667504731 x[38] + 3.376764499648635 x[39]
   + 0.7763437375632445 x[40] + 1.957719140566174 x[41]
   + 0.5689407219007643 x[42] + 2.830999649563911 x[43]
   + 3.570588126911286 x[44] + 3.972574964419072 x[45]
   + 0.4636577242122357 x[46] + 3.307042822044702 x[47]
   + 1.983916617668856 x[48] + 4.169392122606859 x[49]
   + 1.847692955443466 x[50] + 4.531840597011493 x[51]
   + 0.4421009442704095 x[52] + 0.9612811364024438 x[53]
   + 0.0972657395404909 x[54] + 4.431168041135631 x[55]
   + 2.114347247010424 x[56] + 2.857726554705769 x[57]
   + 4.413722216181708 x[58] + 1.181091158795968 x[59]
   + 3.405022813503452 x[60] + 3.0931211380938 x[61]
   + 1.427221119549208 x[62] + 1.894068551819657 x[63]
   + 0.00848794087550991 x[64] + 2.346953630778223 x[65]
   + 3.32841307042221 x[66] + 3.899215753924957 x[67]
   + 1.215570617042846 x[68] + 1.974703016389359 x[69]
   + 0.4394057427465323 x[70] + 2.071060444880514 x[71]
   + 4.273143277080259 x[72] + 2.404000831209129 x[73]
   + 0.9433564893996607 x[74] + 0.4800725621622903 x[75]
   + 0.5233134322669813 x[76] + 1.628712172880154 x[77]
   + 4.761342414417313 x[78] + 4.619563402524597 x[79]
   + 2.635933964047171 x[80] + 4.505915282877771 x[81]
   + 2.755649271384689 x[82] + 2.834245158841398 x[83]
   + 1.228052259154758 x[84] + 2.749177050582261 x[85]
   + 3.581418248654397 x[86] + 3.892198120476102 x[87]
   + 4.552903177509782 x[88] + 0.4002784895451615 x[89]
   + 2.850507784918997 x[90] + 4.283526770366987 x[91]
   + 1.977421744874512 x[92] + 1.593599206815068 x[93]
   + 3.320515723331184 x[94] + 2.160088812178455 x[95]
   + 3.840963462372198 x[96] + 1.928216819293991 x[97]
   + 0.4008173436270531 x[98] + 0.8458055146308102 x[99]
   + 2.641548977709528 x[100] + 2.896267814370816 x[101]
   + 1.273370345586992 x[102] + 4.032276050773664 x[103]
   + 2.912969328728158 x[104] + 1.938349692164105 x[105]
   + 1.893939551840465 x[106] + 3.169246629010696 x[107]
   + 2.412028432466728 x[108] + 4.558531029388711 x[109]
   + 3.580627451805227 x[110] + 2.073001344344105 x[111]
   + 1.605844650854455 x[112] + 4.593979535342703 x[113]
   + 1.405630043617593 x[114] + 0.3793698416168597 x[115]
   + 4.040512570501703 x[116] + 0.0840448984659456 x[117]
   + 2.548693010236296 x[118] + 0.0941300095838827 x[119]
   + 2.555358608159388 x[120] + 3.119531243349812 x[121]
   + 0.8898085007813726 x[122] + 1.83581277678932 x[123]
   + 2.195352280179321 x[124] + 1.218161767229836 x[125]
   + 3.182124070303512 x[126] + 1.71925964476767 x[127]
   + 2.506554442325061 x[128] + 3.241031024388237 x[129] + 28 u[0]
   + 60 u[1] + 90 u[2] + 71 u[3] + 60 u[4] + 6 u[5] + 33 u[6] + 64 u[7]
   + 57 u[8] + 22 u[9] + 60 u[10] + 55 u[11] + 76 u[12] + 4 u[13]
   + 65 u[14] + 21 u[15] + 49 u[16] + 60 u[17] + 21 u[18] + 30 u[19]
   + 49 u[20] + 76 u[21] + 60 u[22] + 99 u[23] + u[24] + 80 u[25]
   + 94 u[26] + 52 u[27] + 18 u[28] + 11 u[29] + 54 u[30] + 20 u[31]
   + 88 u[32] + 81 u[33] + 4 u[34] + 93 u[35] + 64 u[36] + 97 u[37]
   + 68 u[38] + 79 u[39] + 75 u[40] + 18 u[41] + 74 u[42] + 62 u[43]
   + 39 u[44] + 67 u[45] + 42 u[46] + 54 u[47] + 87 u[48] + 48 u[49]
   + 55 u[50] + 100 u[51] + 53 u[52] + 48 u[53] + 37 u[54] + 4 u[55]
   + 13 u[56] + 91 u[57] + 24 u[58] + 14 u[59] + 89 u[60] + 47 u[61]
   + 24 u[62] + 39 u[63] + 68 u[64] + 4 u[65] + 61 u[66] + 79 u[67]
   + 20 u[68] + 90 u[69] + 6 u[70] + 46 u[71] + 26 u[72] + 99 u[73]
   + 84 u[74] + 5 u[75] + 47 u[76] + 59 u[77] + 53 u[78] + 7 u[79]
   + 46 u[80] + 82 u[81] + 67 u[82] + 42 u[83] + 10 u[84] + 46 u[85]
   + 64 u[86] + 68 u[87] + 42 u[88] + 75 u[89] + 93 u[90] + 77 u[91]
   + 61 u[92] + 4 u[93] + 28 u[94] + 93 u[95] + 49 u[96] + 5 u[97]
   + 84 u[98] + 80 u[99] + 13 u[100] + 20 u[101] + 74 u[102] + 28 u[103]
   + 57 u[104] + 74 u[105] + 27 u[106] + 55 u[107] + 99 u[108] + 29 u[109]
   + 67 u[110] + 43 u[111] + 45 u[112] + 81 u[113] + 85 u[114] + 75 u[115]
   + 7 u[116] + 21 u[117] + 37 u[118] + 21 u[119] + 96 u[120] + 13 u[121]
   + 36 u[122] + 7 u[123] + 53 u[124] + 95 u[125] + 92 u[126] + 4 u[127]
   + 83 u[128] + 47 u[129] <= 37890
 mccormick1[0]: - u[0] + r[0] <= 0
 mccormick1[1]: - u[1] + r[1] <= 0
 mccormick1[2]: - u[2] + r[2] <= 0
 mccormick1[3]: - u[3] + r[3] <= 0
 mccormick1[4]: - u[4] + r[4] <= 0
 mccormick1[5]: - u[5] + r[5] <= 0
 mccormick1[6]: - u[6] + r[6] <= 0
 mccormick1[7]: - u[7] + r[7] <= 0
 mccormick1[8]: - u[8] + r[8] <= 0
 mccormick1[9]: - u[9] + r[9] <= 0
 mccormick1[10]: - u[10] + r[10] <= 0
 mccormick1[11]: - u[11] + r[11] <= 0
 mccormick1[12]: - u[12] + r[12] <= 0
 mccormick1[13]: - u[13] + r[13] <= 0
 mccormick1[14]: - u[14] + r[14] <= 0
 mccormick1[15]: - u[15] + r[15] <= 0
 mccormick1[16]: - u[16] + r[16] <= 0
 mccormick1[17]: - u[17] + r[17] <= 0
 mccormick1[18]: - u[18] + r[18] <= 0
 mccormick1[19]: - u[19] + r[19] <= 0
 mccormick1[20]: - u[20] + r[20] <= 0
 mccormick1[21]: - u[21] + r[21] <= 0
 mccormick1[22]: - u[22] + r[22] <= 0
 mccormick1[23]: - u[23] + r[23] <= 0
 mccormick1[24]: - u[24] + r[24] <= 0
 mccormick1[25]: - u[25] + r[25] <= 0
 mccormick1[26]: - u[26] + r[26] <= 0
 mccormick1[27]: - u[27] + r[27] <= 0
 mccormick1[28]: - u[28] + r[28] <= 0
 mccormick1[29]: - u[29] + r[29] <= 0
 mccormick1[30]: - u[30] + r[30] <= 0
 mccormick1[31]: - u[31] + r[31] <= 0
 mccormick1[32]: - u[32] + r[32] <= 0
 mccormick1[33]: - u[33] + r[33] <= 0
 mccormick1[34]: - u[34] + r[34] <= 0
 mccormick1[35]: - u[35] + r[35] <= 0
 mccormick1[36]: - u[36] + r[36] <= 0
 mccormick1[37]: - u[37] + r[37] <= 0
 mccormick1[38]: - u[38] + r[38] <= 0
 mccormick1[39]: - u[39] + r[39] <= 0
 mccormick1[40]: - u[40] + r[40] <= 0
 mccormick1[41]: - u[41] + r[41] <= 0
 mccormick1[42]: - u[42] + r[42] <= 0
 mccormick1[43]: - u[43] + r[43] <= 0
 mccormick1[44]: - u[44] + r[44] <= 0
 mccormick1[45]: - u[45] + r[45] <= 0
 mccormick1[46]: - u[46] + r[46] <= 0
 mccormick1[47]: - u[47] + r[47] <= 0
 mccormick1[48]: - u[48] + r[48] <= 0
 mccormick1[49]: - u[49] + r[49] <= 0
 mccormick1[50]: - u[50] + r[50] <= 0
 mccormick1[51]: - u[51] + r[51] <= 0
 mccormick1[52]: - u[52] + r[52] <= 0
 mccormick1[53]: - u[53] + r[53] <= 0
 mccormick1[54]: - u[54] + r[54] <= 0
 mccormick1[55]: - u[55] + r[55] <= 0
 mccormick1[56]: - u[56] + r[56] <= 0
 mccormick1[57]: - u[57] + r[57] <= 0
 mccormick1[58]: - u[58] + r[58] <= 0
 mccormick1[59]: - u[59] + r[59] <= 0
 mccormick1[60]: - u[60] + r[60] <= 0
 mccormick1[61]: - u[61] + r[61] <= 0
 mccormick1[62]: - u[62] + r[62] <= 0
 mccormick1[63]: - u[63] + r[63] <= 0
 mccormick1[64]: - u[64] + r[64] <= 0
 mccormick1[65]: - u[65] + r[65] <= 0
 mccormick1[66]: - u[66] + r[66] <= 0
 mccormick1[67]: - u[67] + r[67] <= 0
 mccormick1[68]: - u[68] + r[68] <= 0
 mccormick1[69]: - u[69] + r[69] <= 0
 mccormick1[70]: - u[70] + r[70] <= 0
 mccormick1[71]: - u[71] + r[71] <= 0
 mccormick1[72]: - u[72] + r[72] <= 0
 mccormick1[73]: - u[73] + r[73] <= 0
 mccormick1[74]: - u[74] + r[74] <= 0
 mccormick1[75]: - u[75] + r[75] <= 0
 mccormick1[76]: - u[76] + r[76] <= 0
 mccormick1[77]: - u[77] + r[77] <= 0
 mccormick1[78]: - u[78] + r[78] <= 0
 mccormick1[79]: - u[79] + r[79] <= 0
 mccormick1[80]: - u[80] + r[80] <= 0
 mccormick1[81]: - u[81] + r[81] <= 0
 mccormick1[82]: - u[82] + r[82] <= 0
 mccormick1[83]: - u[83] + r[83] <= 0
 mccormick1[84]: - u[84] + r[84] <= 0
 mccormick1[85]: - u[85] + r[85] <= 0
 mccormick1[86]: - u[86] + r[86] <= 0
 mccormick1[87]: - u[87] + r[87] <= 0
 mccormick1[88]: - u[88] + r[88] <= 0
 mccormick1[89]: - u[89] + r[89] <= 0
 mccormick1[90]: - u[90] + r[90] <= 0
 mccormick1[91]: - u[91] + r[91] <= 0
 mccormick1[92]: - u[92] + r[92] <= 0
 mccormick1[93]: - u[93] + r[93] <= 0
 mccormick1[94]: - u[94] + r[94] <= 0
 mccormick1[95]: - u[95] + r[95] <= 0
 mccormick1[96]: - u[96] + r[96] <= 0
 mccormick1[97]: - u[97] + r[97] <= 0
 mccormick1[98]: - u[98] + r[98] <= 0
 mccormick1[99]: - u[99] + r[99] <= 0
 mccormick1[100]: - u[100] + r[100] <= 0
 mccormick1[101]: - u[101] + r[101] <= 0
 mccormick1[102]: - u[102] + r[102] <= 0
 mccormick1[103]: - u[103] + r[103] <= 0
 mccormick1[104]: - u[104] + r[104] <= 0
 mccormick1[105]: - u[105] + r[105] <= 0
 mccormick1[106]: - u[106] + r[106] <= 0
 mccormick1[107]: - u[107] + r[107] <= 0
 mccormick1[108]: - u[108] + r[108] <= 0
 mccormick1[109]: - u[109] + r[109] <= 0
 mccormick1[110]: - u[110] + r[110] <= 0
 mccormick1[111]: - u[111] + r[111] <= 0
 mccormick1[112]: - u[112] + r[112] <= 0
 mccormick1[113]: - u[113] + r[113] <= 0
 mccormick1[114]: - u[114] + r[114] <= 0
 mccormick1[115]: - u[115] + r[115] <= 0
 mccormick1[116]: - u[116] + r[116] <= 0
 mccormick1[117]: - u[117] + r[117] <= 0
 mccormick1[118]: - u[118] + r[118] <= 0
 mccormick1[119]: - u[119] + r[119] <= 0
 mccormick1[120]: - u[120] + r[120] <= 0
 mccormick1[121]: - u[121] + r[121] <= 0
 mccormick1[122]: - u[122] + r[122] <= 0
 mccormick1[123]: - u[123] + r[123] <= 0
 mccormick1[124]: - u[124] + r[124] <= 0
 mccormick1[125]: - u[125] + r[125] <= 0
 mccormick1[126]: - u[126] + r[126] <= 0
 mccormick1[127]: - u[127] + r[127] <= 0
 mccormick1[128]: - u[128] + r[128] <= 0
 mccormick1[129]: - u[129] + r[129] <= 0
 mccormick2[0]: - x[0] + r[0] <= 0
 mccormick2[1]: - x[1] + r[1] <= 0
 mccormick2[2]: - x[2] + r[2] <= 0
 mccormick2[3]: - x[3] + r[3] <= 0
 mccormick2[4]: - x[4] + r[4] <= 0
 mccormick2[5]: - x[5] + r[5] <= 0
 mccormick2[6]: - x[6] + r[6] <= 0
 mccormick2[7]: - x[7] + r[7] <= 0
 mccormick2[8]: - x[8] + r[8] <= 0
 mccormick2[9]: - x[9] + r[9] <= 0
 mccormick2[10]: - x[10] + r[10] <= 0
 mccormick2[11]: - x[11] + r[11] <= 0
 mccormick2[12]: - x[12] + r[12] <= 0
 mccormick2[13]: - x[13] + r[13] <= 0
 mccormick2[14]: - x[14] + r[14] <= 0
 mccormick2[15]: - x[15] + r[15] <= 0
 mccormick2[16]: - x[16] + r[16] <= 0
 mccormick2[17]: - x[17] + r[17] <= 0
 mccormick2[18]: - x[18] + r[18] <= 0
 mccormick2[19]: - x[19] + r[19] <= 0
 mccormick2[20]: - x[20] + r[20] <= 0
 mccormick2[21]: - x[21] + r[21] <= 0
 mccormick2[22]: - x[22] + r[22] <= 0
 mccormick2[23]: - x[23] + r[23] <= 0
 mccormick2[24]: - x[24] + r[24] <= 0
 mccormick2[25]: - x[25] + r[25] <= 0
 mccormick2[26]: - x[26] + r[26] <= 0
 mccormick2[27]: - x[27] + r[27] <= 0
 mccormick2[28]: - x[28] + r[28] <= 0
 mccormick2[29]: - x[29] + r[29] <= 0
 mccormick2[30]: - x[30] + r[30] <= 0
 mccormick2[31]: - x[31] + r[31] <= 0
 mccormick2[32]: - x[32] + r[32] <= 0
 mccormick2[33]: - x[33] + r[33] <= 0
 mccormick2[34]: - x[34] + r[34] <= 0
 mccormick2[35]: - x[35] + r[35] <= 0
 mccormick2[36]: - x[36] + r[36] <= 0
 mccormick2[37]: - x[37] + r[37] <= 0
 mccormick2[38]: - x[38] + r[38] <= 0
 mccormick2[39]: - x[39] + r[39] <= 0
 mccormick2[40]: - x[40] + r[40] <= 0
 mccormick2[41]: - x[41] + r[41] <= 0
 mccormick2[42]: - x[42] + r[42] <= 0
 mccormick2[43]: - x[43] + r[43] <= 0
 mccormick2[44]: - x[44] + r[44] <= 0
 mccormick2[45]: - x[45] + r[45] <= 0
 mccormick2[46]: - x[46] + r[46] <= 0
 mccormick2[47]: - x[47] + r[47] <= 0
 mccormick2[48]: - x[48] + r[48] <= 0
 mccormick2[49]: - x[49] + r[49] <= 0
 mccormick2[50]: - x[50] + r[50] <= 0
 mccormick2[51]: - x[51] + r[51] <= 0
 mccormick2[52]: - x[52] + r[52] <= 0
 mccormick2[53]: - x[53] + r[53] <= 0
 mccormick2[54]: - x[54] + r[54] <= 0
 mccormick2[55]: - x[55] + r[55] <= 0
 mccormick2[56]: - x[56] + r[56] <= 0
 mccormick2[57]: - x[57] + r[57] <= 0
 mccormick2[58]: - x[58] + r[58] <= 0
 mccormick2[59]: - x[59] + r[59] <= 0
 mccormick2[60]: - x[60] + r[60] <= 0
 mccormick2[61]: - x[61] + r[61] <= 0
 mccormick2[62]: - x[62] + r[62] <= 0
 mccormick2[63]: - x[63] + r[63] <= 0
 mccormick2[64]: - x[64] + r[64] <= 0
 mccormick2[65]: - x[65] + r[65] <= 0
 mccormick2[66]: - x[66] + r[66] <= 0
 mccormick2[67]: - x[67] + r[67] <= 0
 mccormick2[68]: - x[68] + r[68] <= 0
 mccormick2[69]: - x[69] + r[69] <= 0
 mccormick2[70]: - x[70] + r[70] <= 0
 mccormick2[71]: - x[71] + r[71] <= 0
 mccormick2[72]: - x[72] + r[72] <= 0
 mccormick2[73]: - x[73] + r[73] <= 0
 mccormick2[74]: - x[74] + r[74] <= 0
 mccormick2[75]: - x[75] + r[75] <= 0
 mccormick2[76]: - x[76] + r[76] <= 0
 mccormick2[77]: - x[77] + r[77] <= 0
 mccormick2[78]: - x[78] + r[78] <= 0
 mccormick2[79]: - x[79] + r[79] <= 0
 mccormick2[80]: - x[80] + r[80] <= 0
 mccormick2[81]: - x[81] + r[81] <= 0
 mccormick2[82]: - x[82] + r[82] <= 0
 mccormick2[83]: - x[83] + r[83] <= 0
 mccormick2[84]: - x[84] + r[84] <= 0
 mccormick2[85]: - x[85] + r[85] <= 0
 mccormick2[86]: - x[86] + r[86] <= 0
 mccormick2[87]: - x[87] + r[87] <= 0
 mccormick2[88]: - x[88] + r[88] <= 0
 mccormick2[89]: - x[89] + r[89] <= 0
 mccormick2[90]: - x[90] + r[90] <= 0
 mccormick2[91]: - x[91] + r[91] <= 0
 mccormick2[92]: - x[92] + r[92] <= 0
 mccormick2[93]: - x[93] + r[93] <= 0
 mccormick2[94]: - x[94] + r[94] <= 0
 mccormick2[95]: - x[95] + r[95] <= 0
 mccormick2[96]: - x[96] + r[96] <= 0
 mccormick2[97]: - x[97] + r[97] <= 0
 mccormick2[98]: - x[98] + r[98] <= 0
 mccormick2[99]: - x[99] + r[99] <= 0
 mccormick2[100]: - x[100] + r[100] <= 0
 mccormick2[101]: - x[101] + r[101] <= 0
 mccormick2[102]: - x[102] + r[102] <= 0
 mccormick2[103]: - x[103] + r[103] <= 0
 mccormick2[104]: - x[104] + r[104] <= 0
 mccormick2[105]: - x[105] + r[105] <= 0
 mccormick2[106]: - x[106] + r[106] <= 0
 mccormick2[107]: - x[107] + r[107] <= 0
 mccormick2[108]: - x[108] + r[108] <= 0
 mccormick2[109]: - x[109] + r[109] <= 0
 mccormick2[110]: - x[110] + r[110] <= 0
 mccormick2[111]: - x[111] + r[111] <= 0
 mccormick2[112]: - x[112] + r[112] <= 0
 mccormick2[113]: - x[113] + r[113] <= 0
 mccormick2[114]: - x[114] + r[114] <= 0
 mccormick2[115]: - x[115] + r[115] <= 0
 mccormick2[116]: - x[116] + r[116] <= 0
 mccormick2[117]: - x[117] + r[117] <= 0
 mccormick2[118]: - x[118] + r[118] <= 0
 mccormick2[119]: - x[119] + r[119] <= 0
 mccormick2[120]: - x[120] + r[120] <= 0
 mccormick2[121]: - x[121] + r[121] <= 0
 mccormick2[122]: - x[122] + r[122] <= 0
 mccormick2[123]: - x[123] + r[123] <= 0
 mccormick2[124]: - x[124] + r[124] <= 0
 mccormick2[125]: - x[125] + r[125] <= 0
 mccormick2[126]: - x[126] + r[126] <= 0
 mccormick2[127]: - x[127] + r[127] <= 0
 mccormick2[128]: - x[128] + r[128] <= 0
 mccormick2[129]: - x[129] + r[129] <= 0
 mccormick3[0]: x[0] + u[0] - r[0] <= 1
 mccormick3[1]: x[1] + u[1] - r[1] <= 1
 mccormick3[2]: x[2] + u[2] - r[2] <= 1
 mccormick3[3]: x[3] + u[3] - r[3] <= 1
 mccormick3[4]: x[4] + u[4] - r[4] <= 1
 mccormick3[5]: x[5] + u[5] - r[5] <= 1
 mccormick3[6]: x[6] + u[6] - r[6] <= 1
 mccormick3[7]: x[7] + u[7] - r[7] <= 1
 mccormick3[8]: x[8] + u[8] - r[8] <= 1
 mccormick3[9]: x[9] + u[9] - r[9] <= 1
 mccormick3[10]: x[10] + u[10] - r[10] <= 1
 mccormick3[11]: x[11] + u[11] - r[11] <= 1
 mccormick3[12]: x[12] + u[12] - r[12] <= 1
 mccormick3[13]: x[13] + u[13] - r[13] <= 1
 mccormick3[14]: x[14] + u[14] - r[14] <= 1
 mccormick3[15]: x[15] + u[15] - r[15] <= 1
 mccormick3[16]: x[16] + u[16] - r[16] <= 1
 mccormick3[17]: x[17] + u[17] - r[17] <= 1
 mccormick3[18]: x[18] + u[18] - r[18] <= 1
 mccormick3[19]: x[19] + u[19] - r[19] <= 1
 mccormick3[20]: x[20] + u[20] - r[20] <= 1
 mccormick3[21]: x[21] + u[21] - r[21] <= 1
 mccormick3[22]: x[22] + u[22] - r[22] <= 1
 mccormick3[23]: x[23] + u[23] - r[23] <= 1
 mccormick3[24]: x[24] + u[24] - r[24] <= 1
 mccormick3[25]: x[25] + u[25] - r[25] <= 1
 mccormick3[26]: x[26] + u[26] - r[26] <= 1
 mccormick3[27]: x[27] + u[27] - r[27] <= 1
 mccormick3[28]: x[28] + u[28] - r[28] <= 1
 mccormick3[29]: x[29] + u[29] - r[29] <= 1
 mccormick3[30]: x[30] + u[30] - r[30] <= 1
 mccormick3[31]: x[31] + u[31] - r[31] <= 1
 mccormick3[32]: x[32] + u[32] - r[32] <= 1
 mccormick3[33]: x[33] + u[33] - r[33] <= 1
 mccormick3[34]: x[34] + u[34] - r[34] <= 1
 mccormick3[35]: x[35] + u[35] - r[35] <= 1
 mccormick3[36]: x[36] + u[36] - r[36] <= 1
 mccormick3[37]: x[37] + u[37] - r[37] <= 1
 mccormick3[38]: x[38] + u[38] - r[38] <= 1
 mccormick3[39]: x[39] + u[39] - r[39] <= 1
 mccormick3[40]: x[40] + u[40] - r[40] <= 1
 mccormick3[41]: x[41] + u[41] - r[41] <= 1
 mccormick3[42]: x[42] + u[42] - r[42] <= 1
 mccormick3[43]: x[43] + u[43] - r[43] <= 1
 mccormick3[44]: x[44] + u[44] - r[44] <= 1
 mccormick3[45]: x[45] + u[45] - r[45] <= 1
 mccormick3[46]: x[46] + u[46] - r[46] <= 1
 mccormick3[47]: x[47] + u[47] - r[47] <= 1
 mccormick3[48]: x[48] + u[48] - r[48] <= 1
 mccormick3[49]: x[49] + u[49] - r[49] <= 1
 mccormick3[50]: x[50] + u[50] - r[50] <= 1
 mccormick3[51]: x[51] + u[51] - r[51] <= 1
 mccormick3[52]: x[52] + u[52] - r[52] <= 1
 mccormick3[53]: x[53] + u[53] - r[53] <= 1
 mccormick3[54]: x[54] + u[54] - r[54] <= 1
 mccormick3[55]: x[55] + u[55] - r[55] <= 1
 mccormick3[56]: x[56] + u[56] - r[56] <= 1
 mccormick3[57]: x[57] + u[57] - r[57] <= 1
 mccormick3[58]: x[58] + u[58] - r[58] <= 1
 mccormick3[59]: x[59] + u[59] - r[59] <= 1
 mccormick3[60]: x[60] + u[60] - r[60] <= 1
 mccormick3[61]: x[61] + u[61] - r[61] <= 1
 mccormick3[62]: x[62] + u[62] - r[62] <= 1
 mccormick3[63]: x[63] + u[63] - r[63] <= 1
 mccormick3[64]: x[64] + u[64] - r[64] <= 1
 mccormick3[65]: x[65] + u[65] - r[65] <= 1
 mccormick3[66]: x[66] + u[66] - r[66] <= 1
 mccormick3[67]: x[67] + u[67] - r[67] <= 1
 mccormick3[68]: x[68] + u[68] - r[68] <= 1
 mccormick3[69]: x[69] + u[69] - r[69] <= 1
 mccormick3[70]: x[70] + u[70] - r[70] <= 1
 mccormick3[71]: x[71] + u[71] - r[71] <= 1
 mccormick3[72]: x[72] + u[72] - r[72] <= 1
 mccormick3[73]: x[73] + u[73] - r[73] <= 1
 mccormick3[74]: x[74] + u[74] - r[74] <= 1
 mccormick3[75]: x[75] + u[75] - r[75] <= 1
 mccormick3[76]: x[76] + u[76] - r[76] <= 1
 mccormick3[77]: x[77] + u[77] - r[77] <= 1
 mccormick3[78]: x[78] + u[78] - r[78] <= 1
 mccormick3[79]: x[79] + u[79] - r[79] <= 1
 mccormick3[80]: x[80] + u[80] - r[80] <= 1
 mccormick3[81]: x[81] + u[81] - r[81] <= 1
 mccormick3[82]: x[82] + u[82] - r[82] <= 1
 mccormick3[83]: x[83] + u[83] - r[83] <= 1
 mccormick3[84]: x[84] + u[84] - r[84] <= 1
 mccormick3[85]: x[85] + u[85] - r[85] <= 1
 mccormick3[86]: x[86] + u[86] - r[86] <= 1
 mccormick3[87]: x[87] + u[87] - r[87] <= 1
 mccormick3[88]: x[88] + u[88] - r[88] <= 1
 mccormick3[89]: x[89] + u[89] - r[89] <= 1
 mccormick3[90]: x[90] + u[90] - r[90] <= 1
 mccormick3[91]: x[91] + u[91] - r[91] <= 1
 mccormick3[92]: x[92] + u[92] - r[92] <= 1
 mccormick3[93]: x[93] + u[93] - r[93] <= 1
 mccormick3[94]: x[94] + u[94] - r[94] <= 1
 mccormick3[95]: x[95] + u[95] - r[95] <= 1
 mccormick3[96]: x[96] + u[96] - r[96] <= 1
 mccormick3[97]: x[97] + u[97] - r[97] <= 1
 mccormick3[98]: x[98] + u[98] - r[98] <= 1
 mccormick3[99]: x[99] + u[99] - r[99] <= 1
 mccormick3[100]: x[100] + u[100] - r[100] <= 1
 mccormick3[101]: x[101] + u[101] - r[101] <= 1
 mccormick3[102]: x[102] + u[102] - r[102] <= 1
 mccormick3[103]: x[103] + u[103] - r[103] <= 1
 mccormick3[104]: x[104] + u[104] - r[104] <= 1
 mccormick3[105]: x[105] + u[105] - r[105] <= 1
 mccormick3[106]: x[106] + u[106] - r[106] <= 1
 mccormick3[107]: x[107] + u[107] - r[107] <= 1
 mccormick3[108]: x[108] + u[108] - r[108] <= 1
 mccormick3[109]: x[109] + u[109] - r[109] <= 1
 mccormick3[110]: x[110] + u[110] - r[110] <= 1
 mccormick3[111]: x[111] + u[111] - r[111] <= 1
 mccormick3[112]: x[112] + u[112] - r[112] <= 1
 mccormick3[113]: x[113] + u[113] - r[113] <= 1
 mccormick3[114]: x[114] + u[114] - r[114] <= 1
 mccormick3[115]: x[115] + u[115] - r[115] <= 1
 mccormick3[116]: x[116] + u[116] - r[116] <= 1
 mccormick3[117]: x[117] + u[117] - r[117] <= 1
 mccormick3[118]: x[118] + u[118] - r[118] <= 1
 mccormick3[119]: x[119] + u[119] - r[119] <= 1
 mccormick3[120]: x[120] + u[120] - r[120] <= 1
 mccormick3[121]: x[121] + u[121] - r[121] <= 1
 mccormick3[122]: x[122] + u[122] - r[122] <= 1
 mccormick3[123]: x[123] + u[123] - r[123] <= 1
 mccormick3[124]: x[124] + u[124] - r[124] <= 1
 mccormick3[125]: x[125] + u[125] - r[125] <= 1
 mccormick3[126]: x[126] + u[126] - r[126] <= 1
 mccormick3[127]: x[127] + u[127] - r[127] <= 1
 mccormick3[128]: x[128] + u[128] - r[128] <= 1
 mccormick3[129]: x[129] + u[129] - r[129] <= 1
Bounds
Binaries
 x[0] x[1] x[2] x[3] x[4] x[5] x[6] x[7] x[8] x[9] x[10] x[11] x[12] x[13]
 x[14] x[15] x[16] x[17] x[18] x[19] x[20] x[21] x[22] x[23] x[24] x[25]
 x[26] x[27] x[28] x[29] x[30] x[31] x[32] x[33] x[34] x[35] x[36] x[37]
 x[38] x[39] x[40] x[41] x[42] x[43] x[44] x[45] x[46] x[47] x[48] x[49]
 x[50] x[51] x[52] x[53] x[54] x[55] x[56] x[57] x[58] x[59] x[60] x[61]
 x[62] x[63] x[64] x[65] x[66] x[67] x[68] x[69] x[70] x[71] x[72] x[73]
 x[74] x[75] x[76] x[77] x[78] x[79] x[80] x[81] x[82] x[83] x[84] x[85]
 x[86] x[87] x[88] x[89] x[90] x[91] x[92] x[93] x[94] x[95] x[96] x[97]
 x[98] x[99] x[100] x[101] x[102] x[103] x[104] x[105] x[106] x[107] x[108]
 x[109] x[110] x[111] x[112] x[113] x[114] x[115] x[116] x[117] x[118]
 x[119] x[120] x[121] x[122] x[123] x[124] x[125] x[126] x[127] x[128]
 x[129] u[0] u[1] u[2] u[3] u[4] u[5] u[6] u[7] u[8] u[9] u[10] u[11] u[12]
 u[13] u[14] u[15] u[16] u[17] u[18] u[19] u[20] u[21] u[22] u[23] u[24]
 u[25] u[26] u[27] u[28] u[29] u[30] u[31] u[32] u[33] u[34] u[35] u[36]
 u[37] u[38] u[39] u[40] u[41] u[42] u[43] u[44] u[45] u[46] u[47] u[48]
 u[49] u[50] u[51] u[52] u[53] u[54] u[55] u[56] u[57] u[58] u[59] u[60]
 u[61] u[62] u[63] u[64] u[65] u[66] u[67] u[68] u[69] u[70] u[71] u[72]
 u[73] u[74] u[75] u[76] u[77] u[78] u[79] u[80] u[81] u[82] u[83] u[84]
 u[85] u[86] u[87] u[88] u[89] u[90] u[91] u[92] u[93] u[94] u[95] u[96]
 u[97] u[98] u[99] u[100] u[101] u[102] u[103] u[104] u[105] u[106] u[107]
 u[108] u[109] u[110] u[111] u[112] u[113] u[114] u[115] u[116] u[117]
 u[118] u[119] u[120] u[121] u[122] u[123] u[124] u[125] u[126] u[127]
 u[128] u[129] r[0] r[1] r[2] r[3] r[4] r[5] r[6] r[7] r[8] r[9] r[10]
 r[11] r[12] r[13] r[14] r[15] r[16] r[17] r[18] r[19] r[20] r[21] r[22]
 r[23] r[24] r[25] r[26] r[27] r[28] r[29] r[30] r[31] r[32] r[33] r[34]
 r[35] r[36] r[37] r[38] r[39] r[40] r[41] r[42] r[43] r[44] r[45] r[46]
 r[47] r[48] r[49] r[50] r[51] r[52] r[53] r[54] r[55] r[56] r[57] r[58]
 r[59] r[60] r[61] r[62] r[63] r[64] r[65] r[66] r[67] r[68] r[69] r[70]
 r[71] r[72] r[73] r[74] r[75] r[76] r[77] r[78] r[79] r[80] r[81] r[82]
 r[83] r[84] r[85] r[86] r[87] r[88] r[89] r[90] r[91] r[92] r[93] r[94]
 r[95] r[96] r[97] r[98] r[99] r[100] r[101] r[102] r[103] r[104] r[105]
 r[106] r[107] r[108] r[109] r[110] r[111] r[112] r[113] r[114] r[115]
 r[116] r[117] r[118] r[119] r[120] r[121] r[122] r[123] r[124] r[125]
 r[126] r[127] r[128] r[129]
End
