instances/knapsack/discrete_knapsack_uncertainty/knapsack_130_2.kp
23535
130
649

60 6.0 97
73 7.3 61
99 9.9 87
72 7.2 55
73 7.3 36
6 0.6 48
82 8.2 44
52 5.2 18
14 1.4 81
83 8.3 5
64 6.4 18
28 2.8 34
29 2.9 74
93 9.3 5
97 9.7 54
89 8.9 31
6 0.6 93
81 8.1 17
54 5.4 45
95 9.5 28
54 5.4 8
28 2.8 26
53 5.3 59
71 7.1 43
73 7.3 16
77 7.7 65
55 5.5 71
4 0.4 30
90 9.0 5
8 0.8 7
10 1.0 32
76 7.6 83
24 2.4 95
74 7.4 58
93 9.3 6
6 0.6 68
13 1.3 84
9 0.9 22
65 6.5 89
55 5.5 70
40 4.0 11
66 6.6 12
63 6.3 96
42 4.2 50
60 6.0 17
83 8.3 18
30 3.0 75
74 7.4 79
60 6.0 55
29 2.9 68
7 0.7 18
21 2.1 65
70 7.0 10
33 3.3 4
61 6.1 59
28 2.8 45
70 7.0 69
75 7.5 79
73 7.3 39
51 5.1 42
29 2.9 47
15 1.5 13
52 5.2 4
51 5.1 44
4 0.4 25
65 6.5 76
37 3.7 84
63 6.3 52
97 9.7 3
2 0.2 80
62 6.2 20
22 2.2 54
39 3.9 68
40 4.0 80
52 5.2 37
25 2.5 77
11 1.1 37
64 6.4 68
9 0.9 75
99 9.9 34
34 3.4 54
50 5.0 89
19 1.9 32
94 9.4 77
66 6.6 64
18 1.8 19
48 4.8 13
85 8.5 58
75 7.5 19
100 10.0 53
89 8.9 85
69 6.9 76
25 2.5 4
44 4.4 79
9 0.9 99
62 6.2 89
58 5.8 92
69 6.9 35
93 9.3 31
81 8.1 55
22 2.2 27
97 9.7 68
55 5.5 9
13 1.3 92
46 4.6 54
7 0.7 98
52 5.2 33
7 0.7 39
15 1.5 25
58 5.8 35
87 8.7 20
20 2.0 17
38 3.8 76
10 1.0 26
94 9.4 85
91 9.1 36
52 5.2 18
78 7.8 96
26 2.6 65
33 3.3 46
96 9.6 20
29 2.9 29
88 8.8 81
63 6.3 6
78 7.8 14
87 8.7 59
56 5.6 27
72 7.2 5
83 8.3 78
12 1.2 55

37890
636

[0.3136383195235577 4.3933373599260905 2.8522168490586814 4.036394856087508 4.529188571354816 3.6615520276715623 3.998255714104478 1.2127501139385888 4.265182391166601 1.9112061363785464 3.703092730492321 3.405109718298374 2.285832158146992 1.811789590217585 4.521100273414501 2.37359680068111 3.956453939738096 2.4426047916965237 1.743921094061207 1.2560775419672459 1.6998286162731324 2.158612117075438 0.601979483533097 0.17706618080971365 3.9447432262151483 4.115702175722417 1.4834410215313136 0.1994049928076012 1.0979244241213293 1.3967085737013376 0.4761121922657402 1.8768992143721517 0.6944011328238586 3.821627095318734 2.9189808304226137 1.6635659067290758 2.8511378178262947 1.7379975542103063 1.391727667504731 3.3767644996486355 0.7763437375632445 1.9577191405661738 0.5689407219007643 2.830999649563911 3.5705881269112862 3.972574964419072 0.46365772421223567 3.3070428220447017 1.9839166176688563 4.169392122606859 1.8476929554434658 4.5318405970114926 0.4421009442704095 0.9612811364024438 0.09726573954049095 4.431168041135631 2.1143472470104236 2.857726554705769 4.413722216181708 1.1810911587959676 3.405022813503452 3.0931211380938 1.4272211195492082 1.8940685518196567 0.008487940875509907 2.3469536307782226 3.3284130704222097 3.8992157539249575 1.215570617042846 1.9747030163893589 0.4394057427465323 2.071060444880514 4.273143277080259 2.4040008312091286 0.9433564893996607 0.48007256216229033 0.5233134322669813 1.6287121728801544 4.761342414417313 4.619563402524597 2.635933964047171 4.505915282877771 2.7556492713846894 2.834245158841398 1.2280522591547585 2.7491770505822606 3.5814182486543973 3.8921981204761025 4.552903177509782 0.40027848954516154 2.8505077849189973 4.283526770366987 1.9774217448745115 1.5935992068150682 3.3205157233311837 2.160088812178455 3.8409634623721978 1.9282168192939915 0.4008173436270531 0.8458055146308102 2.641548977709528 2.8962678143708156 1.273370345586992 4.032276050773664 2.9129693287281575 1.9383496921641046 1.8939395518404651 3.169246629010696 2.4120284324667276 4.558531029388711 3.5806274518052272 2.073001344344105 1.605844650854455 4.593979535342703 1.405630043617593 0.37936984161685966 4.040512570501703 0.08404489846594561 2.5486930102362964 0.0941300095838827 2.555358608159388 3.1195312433498117 0.8898085007813726 1.8358127767893198 2.1953522801793213 1.218161767229836 3.182124070303512 1.71925964476767 2.5065544423250614 3.2410310243882368]

[28 60 90 71 60 6 33 64 57 22 60 55 76 4 65 21 49 60 21 30 49 76 60 99 1 80 94 52 18 11 54 20 88 81 4 93 64 97 68 79 75 18 74 62 39 67 42 54 87 48 55 100 53 48 37 4 13 91 24 14 89 47 24 39 68 4 61 79 20 90 6 46 26 99 84 5 47 59 53 7 46 82 67 42 10 46 64 68 42 75 93 77 61 4 28 93 49 5 84 80 13 20 74 28 57 74 27 55 99 29 67 43 45 81 85 75 7 21 37 21 96 13 36 7 53 95 92 4 83 47]
